Welcome to the CBC MILP Solver 
Version: 2.10.3 
Build Date: Dec 15 2019 

command line - /home/pineda/.local/lib/python3.14/site-packages/pulp/apis/../solverdir/cbc/linux/i64/cbc /tmp/82dad3bf183646fead47edbda644a272-pulp.mps -sec 120 -ratio 0.0 -timeMode elapsed -solve -printingOptions all -solution /tmp/82dad3bf183646fead47edbda644a272-pulp.sol (default strategy 1)
At line 2 NAME          MODEL
At line 3 ROWS
At line 442 COLUMNS
At line 2033 RHS
At line 2471 BOUNDS
At line 2632 ENDATA
Problem MODEL has 437 rows, 160 columns and 1265 elements
Coin0008I MODEL read with 0 errors
seconds was changed from 1e+100 to 120
ratioGap was changed from 0 to 0
Option for timeMode changed from cpu to elapsed
Continuous objective value is 0.1 - 0.00 seconds
Cgl0003I 0 fixed, 0 tightened bounds, 75 strengthened rows, 0 substitutions
Cgl0003I 0 fixed, 0 tightened bounds, 25 strengthened rows, 0 substitutions
Cgl0004I processed model has 407 rows, 130 columns (130 integer (130 of which binary)) and 1305 elements
Cutoff increment increased from 1e-05 to 0.9999
Cbc0045I 5 integer variables out of 130 objects (130 integer) have cost of 1 - high priority
Cbc0045I branch on satisfied Y create fake objective Y random cost Y
Cbc0038I Initial state - 32 integers unsatisfied sum - 3.2
Cbc0038I Pass   1: suminf.    3.20000 (32) obj. 0.2 iterations 59
Cbc0038I Pass   2: suminf.    6.00000 (30) obj. 2 iterations 77
Cbc0038I Pass   3: suminf.    4.00000 (32) obj. 1 iterations 63
Cbc0038I Pass   4: suminf.    0.00000 (0) obj. 2 iterations 81
Cbc0038I Solution found of 2
Cbc0038I Before mini branch and bound, 91 integers at bound fixed and 0 continuous
Cbc0038I Full problem 407 rows 130 columns, reduced to 108 rows 39 columns
Cbc0038I Mini branch and bound did not improve solution (0.03 seconds)
Cbc0038I Round again with cutoff of 0.92009
Cbc0038I Pass   5: suminf.    3.20000 (32) obj. 0.2 iterations 0
Cbc0038I Pass   6: suminf.   10.58103 (32) obj. 0.92009 iterations 86
Cbc0038I Pass   7: suminf.   19.56024 (68) obj. 0.92009 iterations 90
Cbc0038I Pass   8: suminf.   13.40102 (60) obj. 0.92009 iterations 65
Cbc0038I Pass   9: suminf.   11.49005 (61) obj. 0.92009 iterations 13
Cbc0038I Pass  10: suminf.   10.29363 (53) obj. 0.92009 iterations 21
Cbc0038I Pass  11: suminf.    9.32164 (54) obj. 0.92009 iterations 10
Cbc0038I Pass  12: suminf.    8.43310 (54) obj. 0.92009 iterations 18
Cbc0038I Pass  13: suminf.    8.37851 (53) obj. 0.92009 iterations 8
Cbc0038I Pass  14: suminf.    4.30916 (57) obj. 0.92009 iterations 25
Cbc0038I Pass  15: suminf.    4.00730 (54) obj. 0.92009 iterations 10
Cbc0038I Pass  16: suminf.   10.63954 (59) obj. 0.2 iterations 71
Cbc0038I Pass  17: suminf.    9.65714 (50) obj. 0.2 iterations 31
Cbc0038I Pass  18: suminf.    9.45802 (51) obj. 0.21374 iterations 32
Cbc0038I Pass  19: suminf.    8.42619 (41) obj. 0.92009 iterations 67
Cbc0038I Pass  20: suminf.    8.03517 (42) obj. 0.92009 iterations 21
Cbc0038I Pass  21: suminf.    7.97124 (42) obj. 0.92009 iterations 10
Cbc0038I Pass  22: suminf.    7.97124 (42) obj. 0.92009 iterations 13
Cbc0038I Pass  23: suminf.    9.36562 (46) obj. 0.92009 iterations 47
Cbc0038I Pass  24: suminf.    7.47179 (50) obj. 0.92009 iterations 40
Cbc0038I Pass  25: suminf.    1.27856 (33) obj. 0.92009 iterations 44
Cbc0038I Pass  26: suminf.    1.17406 (43) obj. 0.92009 iterations 26
Cbc0038I Pass  27: suminf.    9.02211 (77) obj. 0.2 iterations 84
Cbc0038I Pass  28: suminf.    8.94138 (56) obj. 0.2 iterations 13
Cbc0038I Pass  29: suminf.    9.86425 (39) obj. 0.92009 iterations 60
Cbc0038I Pass  30: suminf.    9.29224 (38) obj. 0.92009 iterations 30
Cbc0038I Pass  31: suminf.    9.35976 (31) obj. 0.92009 iterations 10
Cbc0038I Pass  32: suminf.    8.36473 (39) obj. 0.92009 iterations 33
Cbc0038I Pass  33: suminf.    3.90892 (46) obj. 0.92009 iterations 16
Cbc0038I Pass  34: suminf.    3.90892 (46) obj. 0.92009 iterations 8
Cbc0038I Pass  35: suminf.    8.62160 (47) obj. 0.92009 iterations 25
Cbc0038I Pass  36: suminf.    7.68163 (53) obj. 0.92009 iterations 17
Cbc0038I Pass  37: suminf.   11.15834 (55) obj. 0.92009 iterations 32
Cbc0038I Pass  38: suminf.    9.54903 (48) obj. 0.92009 iterations 20
Cbc0038I Pass  39: suminf.    9.52380 (47) obj. 0.92009 iterations 9
Cbc0038I Pass  40: suminf.   11.53883 (48) obj. 0.92009 iterations 49
Cbc0038I Pass  41: suminf.    8.26666 (53) obj. 0.92009 iterations 26
Cbc0038I Pass  42: suminf.    7.51134 (51) obj. 0.92009 iterations 12
Cbc0038I Pass  43: suminf.    7.51134 (51) obj. 0.92009 iterations 2
Cbc0038I Pass  44: suminf.    9.70313 (45) obj. 0.92009 iterations 28
Cbc0038I Pass  45: suminf.    9.69677 (45) obj. 0.92009 iterations 36
Cbc0038I Pass  46: suminf.    1.13701 (46) obj. 0.92009 iterations 52
Cbc0038I Pass  47: suminf.    1.12895 (53) obj. 0.92009 iterations 26
Cbc0038I Pass  48: suminf.   11.00000 (41) obj. 0.2 iterations 124
Cbc0038I Pass  49: suminf.    6.58294 (52) obj. 0.327014 iterations 86
Cbc0038I Pass  50: suminf.   10.43032 (53) obj. 0.92009 iterations 55
Cbc0038I Pass  51: suminf.   10.43032 (53) obj. 0.92009 iterations 1
Cbc0038I Pass  52: suminf.   11.80539 (55) obj. 0.92009 iterations 32
Cbc0038I Pass  53: suminf.   11.43499 (55) obj. 0.92009 iterations 8
Cbc0038I Pass  54: suminf.   10.70088 (54) obj. 0.92009 iterations 19
Cbc0038I Pass  55: suminf.    1.84064 (55) obj. 0.92009 iterations 18
Cbc0038I Pass  56: suminf.    1.09608 (55) obj. 0.92009 iterations 14
Cbc0038I Pass  57: suminf.    7.00000 (44) obj. 0.28 iterations 81
Cbc0038I Pass  58: suminf.    7.00000 (67) obj. 0.328597 iterations 36
Cbc0038I Pass  59: suminf.   10.27350 (46) obj. 0.92009 iterations 58
Cbc0038I Pass  60: suminf.    9.34109 (54) obj. 0.92009 iterations 21
Cbc0038I Pass  61: suminf.    9.33367 (53) obj. 0.92009 iterations 3
Cbc0038I Pass  62: suminf.    9.62375 (45) obj. 0.92009 iterations 33
Cbc0038I Pass  63: suminf.    1.44472 (46) obj. 0.92009 iterations 24
Cbc0038I Pass  64: suminf.    1.12161 (55) obj. 0.92009 iterations 15
Cbc0038I Pass  65: suminf.    7.00000 (44) obj. 0.28 iterations 83
Cbc0038I Pass  66: suminf.    7.00000 (67) obj. 0.328597 iterations 33
Cbc0038I Pass  67: suminf.   10.37137 (54) obj. 0.92009 iterations 55
Cbc0038I Pass  68: suminf.   10.29300 (51) obj. 0.92009 iterations 12
Cbc0038I Pass  69: suminf.    2.22036 (46) obj. 0.92009 iterations 26
Cbc0038I Pass  70: suminf.    1.12161 (55) obj. 0.92009 iterations 21
Cbc0038I Pass  71: suminf.    6.96970 (53) obj. 0.333333 iterations 80
Cbc0038I Pass  72: suminf.    6.61352 (53) obj. 0.347913 iterations 24
Cbc0038I Pass  73: suminf.    6.58294 (52) obj. 0.327014 iterations 22
Cbc0038I Pass  74: suminf.    1.11790 (46) obj. 0.92009 iterations 35
Cbc0038I Pass  75: suminf.    1.09608 (55) obj. 0.92009 iterations 11
Cbc0038I Pass  76: suminf.   10.14706 (43) obj. 0.205882 iterations 138
Cbc0038I Pass  77: suminf.    7.42612 (46) obj. 0.38488 iterations 54
Cbc0038I Pass  78: suminf.    6.96766 (45) obj. 0.4801 iterations 19
Cbc0038I Pass  79: suminf.    7.68240 (51) obj. 0.92009 iterations 43
Cbc0038I Pass  80: suminf.    7.66629 (51) obj. 0.92009 iterations 7
Cbc0038I Pass  81: suminf.    3.83191 (53) obj. 0.92009 iterations 17
Cbc0038I Pass  82: suminf.    3.78829 (51) obj. 0.92009 iterations 11
Cbc0038I Pass  83: suminf.    7.87755 (52) obj. 0.336735 iterations 93
Cbc0038I Pass  84: suminf.    6.62500 (34) obj. 0.375 iterations 59
Cbc0038I Pass  85: suminf.    6.58294 (52) obj. 0.327014 iterations 19
Cbc0038I Pass  86: suminf.    9.43701 (45) obj. 0.92009 iterations 62
Cbc0038I Pass  87: suminf.    9.43779 (44) obj. 0.92009 iterations 4
Cbc0038I Pass  88: suminf.    1.11790 (46) obj. 0.92009 iterations 51
Cbc0038I Pass  89: suminf.    1.09608 (55) obj. 0.92009 iterations 9
Cbc0038I Pass  90: suminf.    7.14343 (50) obj. 0.338645 iterations 89
Cbc0038I Pass  91: suminf.    7.00000 (66) obj. 0.32987 iterations 26
Cbc0038I Pass  92: suminf.   10.29300 (50) obj. 0.92009 iterations 67
Cbc0038I Pass  93: suminf.   10.29300 (50) obj. 0.92009 iterations 13
Cbc0038I Pass  94: suminf.   10.32914 (54) obj. 0.461092 iterations 65
Cbc0038I Pass  95: suminf.    8.94138 (56) obj. 0.2 iterations 65
Cbc0038I Pass  96: suminf.    8.53409 (57) obj. 0.92009 iterations 57
Cbc0038I Pass  97: suminf.    8.43197 (56) obj. 0.92009 iterations 6
Cbc0038I Pass  98: suminf.    8.31747 (56) obj. 0.92009 iterations 7
Cbc0038I Pass  99: suminf.    9.98107 (50) obj. 0.92009 iterations 28
Cbc0038I Pass 100: suminf.    3.92067 (57) obj. 0.92009 iterations 13
Cbc0038I Pass 101: suminf.    3.90125 (57) obj. 0.92009 iterations 17
Cbc0038I Pass 102: suminf.    9.47169 (30) obj. 0.92009 iterations 33
Cbc0038I Pass 103: suminf.    0.80756 (50) obj. 0.92009 iterations 24
Cbc0038I Pass 104: suminf.    0.77855 (46) obj. 0.92009 iterations 30
Cbc0038I No solution found this major pass
Cbc0038I Before mini branch and bound, 20 integers at bound fixed and 0 continuous
Cbc0038I Full problem 407 rows 130 columns, reduced to 348 rows 110 columns - 2 fixed gives 337, 108 - still too large
Cbc0038I Mini branch and bound did not improve solution (0.19 seconds)
Cbc0038I After 0.19 seconds - Feasibility pump exiting with objective of 2 - took 0.17 seconds
Cbc0012I Integer solution of 2 found by feasibility pump after 0 iterations and 0 nodes (0.19 seconds)
Cbc0038I Full problem 407 rows 130 columns, reduced to 98 rows 34 columns
Cbc0012I Integer solution of 1 found by DiveCoefficient after 4722 iterations and 0 nodes (0.72 seconds)
Cbc0031I 7 added rows had average density of 21.571429
Cbc0013I At root node, 7 cuts changed objective from 0.2 to 1 in 61 passes
Cbc0014I Cut generator 0 (Probing) - 0 row cuts average 0.0 elements, 0 column cuts (0 active)  in 0.039 seconds - new frequency is -100
Cbc0014I Cut generator 1 (Gomory) - 1389 row cuts average 91.1 elements, 0 column cuts (0 active)  in 0.045 seconds - new frequency is 1
Cbc0014I Cut generator 2 (Knapsack) - 6 row cuts average 15.0 elements, 0 column cuts (0 active)  in 0.015 seconds - new frequency is -100
Cbc0014I Cut generator 3 (Clique) - 0 row cuts average 0.0 elements, 0 column cuts (0 active)  in 0.002 seconds - new frequency is -100
Cbc0014I Cut generator 4 (MixedIntegerRounding2) - 19 row cuts average 33.3 elements, 0 column cuts (0 active)  in 0.022 seconds - new frequency is -100
Cbc0014I Cut generator 5 (FlowCover) - 0 row cuts average 0.0 elements, 0 column cuts (0 active)  in 0.002 seconds - new frequency is -100
Cbc0014I Cut generator 6 (TwoMirCuts) - 251 row cuts average 73.7 elements, 0 column cuts (0 active)  in 0.024 seconds - new frequency is 1
Cbc0014I Cut generator 7 (ZeroHalf) - 93 row cuts average 9.0 elements, 0 column cuts (0 active)  in 0.047 seconds - new frequency is 1
Cbc0001I Search completed - best objective 1, took 4722 iterations and 0 nodes (0.72 seconds)
Cbc0035I Maximum depth 0, 0 variables fixed on reduced cost
Cuts at root node changed objective from 0.2 to 1
Probing was tried 61 times and created 0 cuts of which 0 were active after adding rounds of cuts (0.039 seconds)
Gomory was tried 61 times and created 1389 cuts of which 0 were active after adding rounds of cuts (0.045 seconds)
Knapsack was tried 61 times and created 6 cuts of which 0 were active after adding rounds of cuts (0.015 seconds)
Clique was tried 61 times and created 0 cuts of which 0 were active after adding rounds of cuts (0.002 seconds)
MixedIntegerRounding2 was tried 61 times and created 19 cuts of which 0 were active after adding rounds of cuts (0.022 seconds)
FlowCover was tried 61 times and created 0 cuts of which 0 were active after adding rounds of cuts (0.002 seconds)
TwoMirCuts was tried 61 times and created 251 cuts of which 0 were active after adding rounds of cuts (0.024 seconds)
ZeroHalf was tried 61 times and created 93 cuts of which 0 were active after adding rounds of cuts (0.047 seconds)

Result - Optimal solution found

Objective value:                1.00000000
Enumerated nodes:               0
Total iterations:               4722
Time (CPU seconds):             0.70
Time (Wallclock seconds):       0.74

Option for printingOptions changed from normal to all
Total time (CPU seconds):       0.70   (Wallclock seconds):       0.74

